VALUE 183
27 47
32 92
35 335
74 76
76 86
151 161
151 158
156 106
156 158
159 119
159 959
161 111
183 189
189 889
201 251
213 216
256 258
256 259
256 216
256 251
256 156
258 288
259 269
259 959
324 325
324 334
325 335
350 380
395 325
395 795
395 397
397 327
427 437
480 500
522 722
522 532
522 527
524 594
524 424
524 527
525 545
525 527
527 577
527 530
527 327
527 427
527 27
530 30
532 32
540 740
540 580
542 545
542 442
572 372
572 580
574 580
574 74
575 580
575 475
577 580
580 480
580 380
611 111
653 953
658 668
658 158
659 609
659 959
686 689
686 86
689 889
737 740
774 744
774 777
777 737
818 819
819 889
859 889
863 866
903 963
903 803
903 908
908 909
909 959
916 956
951 851
951 981
951 959
953 959
956 959
959 859
963 863